outputs/models/Extended_LCD_ILP_2_4_2_1.mps
* Signature: 0x5e9fbc34582307f3
NAME Extended ILP
OBJSENSE MAX
ROWS
 N  OBJ
 G  R0      
 G  R1      
 G  R2      
 G  R3      
 G  R4      
 G  R5      
 G  R6      
 G  R7      
 L  R8      
COLUMNS
    MARKER    'MARKER'                 'INTORG'
    A[0]      OBJ       1
    A[0]      R1        -2
    A[0]      R3        1
    A[0]      R4        6
    A[0]      R5        4
    A[0]      R7        1
    A[0]      R8        1
    A[1]      OBJ       1
    A[1]      R0        -2
    A[1]      R2        2
    A[1]      R3        -1
    A[1]      R4        6
    A[1]      R6        2
    A[1]      R7        1
    A[1]      R8        1
    A[2]      OBJ       1
    A[2]      R0        -4
    A[2]      R1        6
    A[2]      R2        -4
    A[2]      R3        1
    A[2]      R5        8
    A[2]      R6        -2
    A[2]      R7        1
    A[2]      R8        1
    MARKER    'MARKER'                 'INTEND'
RHS
    RHS1      R0        -4
    RHS1      R1        -6
    RHS1      R2        -4
    RHS1      R3        -1
    RHS1      R7        2
    RHS1      R8        8
BOUNDS
 UP BND1      A[0]      6
 UP BND1      A[1]      4
 UP BND1      A[2]      1
ENDATA
